************************************************************************
file with basedata            : mm26_.bas
initial value random generator: 258852259
************************************************************************
projects                      :  1
jobs (incl. supersource/sink ):  12
horizon                       :  75
RESOURCES
  - renewable                 :  2   R
  - nonrenewable              :  2   N
  - doubly constrained        :  0   D
************************************************************************
PROJECT INFORMATION:
pronr.  #jobs rel.date duedate tardcost  MPM-Time
    1     10      0       11        5       11
************************************************************************
PRECEDENCE RELATIONS:
jobnr.    #modes  #successors   successors
   0        1          3           1   2   3
   1        3          3           4   5   8
   2        3          1          10
   3        3          2           4   8
   4        3          3           6   7  10
   5        3          1           9
   6        3          1           9
   7        3          1           9
   8        3          1          11
   9        3          1          11
  10        3          1          11
  11        1          0        
************************************************************************
REQUESTS/DURATIONS:
jobnr. mode duration  R 1  R 2  R 3  R 4  E(W 1)  E(W 2)
------------------------------------------------------------------------
  0      1     0       0    0    0    0     0       0
  1      1     2       6    0    9    0    12      18
  2      1     3       1    0    0    8     6      24
  3      1     2       0    9    0    8    18      16
  4      1     1       0    6    8    0     6       8
  5      1     1       4    0    4    0     4       4
  6      1     3       9    0    0    5    27      15
  7      1     3       0    9    8    0    27      24
  8      1     1       0    7   10    0     7      10
  9      1     2       0    6    7    0    12      14
 10      1     8       0    3    0    6    24      48
 11      1     0       0    0    0    0     0       0
************************************************************************
RESOURCEAVAILABILITIES:
  R 1  R 2
   41   67
************************************************************************
RESOURCE LIMITS:
jobnr.  l(R 1)  u(R 1)  l(R 2)  u(R 2)
------------------------------------------------------------------------
  0        0       0       0       0
  1        3       6       5       9
  2        1       2       4       8
  3        5       9       4       8
  4        3       6       4       8
  5        2       4       2       4
  6        5       9       3       5
  7        5       9       4       8
  8        4       7       5      10
  9        3       6       4       7
 10        2       3       3       6
 11        0       0       0       0
************************************************************************
SCENARIOS:
------------------------------------------------------------------------
RESOURCE k = 1
s = 1: (0, 16, 6, 20, 6, 3, 26, 18, 9, 11, 24, 0)
s = 2: (0, 9, 5, 21, 8, 6, 45, 27, 6, 9, 16, 0)
s = 3: (0, 13, 6, 14, 6, 4, 31, 27, 7, 9, 24, 0)
s = 4: (0, 10, 11, 27, 11, 4, 19, 27, 9, 10, 22, 0)
s = 5: (0, 16, 9, 17, 5, 4, 23, 20, 14, 12, 27, 0)
s = 6: (0, 14, 4, 30, 7, 7, 21, 16, 7, 12, 17, 0)
s = 7: (0, 11, 5, 11, 5, 5, 28, 30, 11, 8, 16, 0)
s = 8: (0, 10, 5, 21, 6, 5, 17, 22, 8, 14, 22, 0)
s = 9: (0, 9, 8, 33, 5, 5, 43, 25, 5, 20, 27, 0)
s = 10: (0, 13, 7, 23, 7, 5, 41, 37, 8, 8, 24, 0)
s = 11: (0, 10, 6, 13, 5, 4, 19, 19, 12, 10, 20, 0)
s = 12: (0, 8, 5, 18, 4, 6, 27, 20, 5, 15, 22, 0)
s = 13: (0, 12, 5, 13, 7, 4, 32, 17, 6, 15, 17, 0)
s = 14: (0, 9, 7, 18, 8, 6, 18, 34, 7, 14, 18, 0)
s = 15: (0, 9, 6, 19, 6, 4, 17, 39, 6, 10, 44, 0)
s = 16: (0, 14, 6, 25, 6, 3, 20, 27, 6, 9, 16, 0)
s = 17: (0, 14, 11, 13, 8, 3, 19, 21, 9, 13, 25, 0)
s = 18: (0, 15, 7, 18, 7, 4, 43, 27, 8, 13, 23, 0)
s = 19: (0, 10, 8, 15, 8, 3, 15, 23, 6, 12, 16, 0)
s = 20: (0, 11, 4, 14, 4, 4, 14, 23, 12, 11, 17, 0)
s = 21: (0, 9, 4, 17, 8, 5, 24, 25, 8, 15, 30, 0)
s = 22: (0, 12, 7, 19, 9, 3, 36, 31, 5, 18, 18, 0)
s = 23: (0, 13, 7, 18, 5, 4, 20, 28, 5, 12, 24, 0)
s = 24: (0, 13, 6, 22, 6, 3, 19, 36, 12, 9, 23, 0)
s = 25: (0, 10, 6, 18, 6, 5, 33, 29, 5, 15, 25, 0)
s = 26: (0, 9, 6, 16, 4, 3, 42, 21, 5, 16, 18, 0)
s = 27: (0, 12, 5, 17, 4, 4, 16, 22, 7, 16, 37, 0)
s = 28: (0, 10, 7, 16, 8, 5, 30, 19, 8, 11, 25, 0)
s = 29: (0, 11, 5, 18, 7, 5, 22, 27, 10, 14, 21, 0)
s = 30: (0, 17, 5, 22, 7, 4, 35, 24, 5, 10, 23, 0)
s = 31: (0, 18, 9, 21, 6, 3, 34, 23, 11, 12, 29, 0)
s = 32: (0, 10, 7, 15, 5, 4, 18, 20, 10, 11, 29, 0)
s = 33: (0, 14, 5, 16, 5, 5, 25, 25, 9, 14, 17, 0)
s = 34: (0, 11, 8, 17, 7, 4, 19, 22, 6, 15, 21, 0)
s = 35: (0, 10, 6, 20, 6, 4, 24, 25, 7, 9, 21, 0)
s = 36: (0, 13, 4, 19, 6, 4, 20, 29, 8, 9, 16, 0)
s = 37: (0, 13, 8, 14, 6, 3, 30, 16, 11, 9, 36, 0)
s = 38: (0, 14, 5, 26, 7, 3, 19, 17, 6, 17, 29, 0)
s = 39: (0, 10, 5, 26, 7, 4, 24, 22, 7, 17, 32, 0)
s = 40: (0, 11, 8, 14, 5, 4, 18, 21, 8, 11, 32, 0)
s = 41: (0, 17, 4, 15, 6, 3, 30, 42, 10, 9, 25, 0)
s = 42: (0, 17, 9, 12, 7, 5, 17, 30, 8, 9, 27, 0)
s = 43: (0, 13, 5, 19, 10, 4, 39, 35, 11, 9, 15, 0)
s = 44: (0, 8, 5, 18, 4, 4, 19, 18, 7, 10, 20, 0)
s = 45: (0, 12, 6, 25, 6, 6, 19, 30, 7, 9, 25, 0)
s = 46: (0, 13, 7, 13, 6, 5, 38, 19, 8, 14, 31, 0)
s = 47: (0, 10, 11, 18, 7, 4, 19, 28, 7, 10, 30, 0)
s = 48: (0, 11, 5, 17, 4, 4, 28, 18, 6, 15, 15, 0)
s = 49: (0, 7, 10, 15, 7, 4, 18, 19, 5, 19, 27, 0)
s = 50: (0, 16, 4, 29, 9, 4, 35, 15, 5, 10, 30, 0)
s = 51: (0, 12, 8, 12, 7, 4, 23, 28, 8, 14, 23, 0)
s = 52: (0, 12, 4, 15, 11, 5, 19, 26, 5, 15, 30, 0)
s = 53: (0, 11, 8, 12, 8, 5, 33, 24, 9, 16, 29, 0)
s = 54: (0, 8, 5, 14, 8, 5, 42, 32, 7, 13, 21, 0)
s = 55: (0, 9, 9, 18, 6, 5, 27, 21, 13, 8, 20, 0)
s = 56: (0, 15, 8, 11, 4, 3, 22, 21, 6, 16, 21, 0)
s = 57: (0, 16, 11, 13, 9, 4, 20, 40, 11, 8, 32, 0)
s = 58: (0, 12, 8, 25, 10, 3, 28, 20, 7, 16, 31, 0)
s = 59: (0, 12, 4, 17, 6, 3, 21, 39, 7, 13, 28, 0)
s = 60: (0, 11, 4, 12, 5, 5, 22, 29, 6, 14, 21, 0)
s = 61: (0, 14, 5, 13, 5, 4, 24, 27, 7, 16, 21, 0)
s = 62: (0, 16, 9, 13, 7, 3, 23, 39, 9, 19, 21, 0)
s = 63: (0, 12, 10, 19, 5, 4, 33, 24, 4, 19, 22, 0)
s = 64: (0, 17, 5, 18, 9, 6, 21, 32, 6, 7, 31, 0)
s = 65: (0, 11, 8, 14, 8, 4, 28, 23, 9, 15, 19, 0)
s = 66: (0, 11, 5, 15, 5, 4, 18, 24, 7, 13, 23, 0)
s = 67: (0, 19, 9, 11, 5, 5, 43, 26, 6, 10, 38, 0)
s = 68: (0, 11, 5, 22, 5, 5, 30, 28, 6, 19, 28, 0)
s = 69: (0, 11, 5, 21, 6, 6, 28, 27, 6, 14, 27, 0)
s = 70: (0, 18, 11, 13, 9, 4, 26, 51, 7, 15, 15, 0)
s = 71: (0, 15, 7, 18, 8, 5, 29, 23, 5, 14, 31, 0)
s = 72: (0, 9, 6, 29, 6, 4, 33, 20, 9, 10, 20, 0)
s = 73: (0, 16, 9, 27, 5, 4, 25, 26, 7, 12, 24, 0)
s = 74: (0, 8, 8, 29, 6, 4, 32, 16, 7, 14, 37, 0)
s = 75: (0, 17, 7, 17, 5, 5, 26, 25, 6, 16, 26, 0)
s = 76: (0, 15, 6, 17, 6, 7, 33, 17, 7, 11, 18, 0)
s = 77: (0, 10, 5, 12, 6, 5, 28, 22, 5, 9, 34, 0)
s = 78: (0, 12, 6, 26, 9, 4, 47, 17, 7, 19, 23, 0)
s = 79: (0, 12, 9, 22, 6, 3, 22, 16, 9, 16, 35, 0)
s = 80: (0, 7, 7, 12, 4, 4, 27, 27, 7, 8, 28, 0)
s = 81: (0, 8, 8, 15, 8, 4, 24, 27, 8, 8, 32, 0)
s = 82: (0, 14, 8, 19, 9, 4, 28, 31, 10, 10, 23, 0)
s = 83: (0, 14, 7, 15, 7, 6, 19, 19, 7, 11, 18, 0)
s = 84: (0, 13, 9, 12, 6, 5, 30, 17, 7, 15, 25, 0)
s = 85: (0, 15, 7, 28, 6, 5, 23, 40, 6, 16, 18, 0)
s = 86: (0, 16, 11, 17, 5, 5, 19, 18, 6, 9, 17, 0)
s = 87: (0, 9, 7, 20, 10, 4, 41, 25, 7, 7, 26, 0)
s = 88: (0, 9, 8, 20, 5, 4, 17, 19, 6, 14, 35, 0)
s = 89: (0, 11, 4, 17, 5, 5, 32, 23, 7, 10, 21, 0)
s = 90: (0, 13, 8, 17, 6, 4, 25, 20, 7, 10, 23, 0)
s = 91: (0, 16, 4, 19, 7, 4, 32, 31, 7, 13, 22, 0)
s = 92: (0, 12, 9, 17, 8, 4, 28, 25, 8, 8, 25, 0)
s = 93: (0, 12, 7, 21, 11, 6, 21, 34, 7, 9, 14, 0)
s = 94: (0, 18, 5, 23, 7, 3, 28, 31, 6, 14, 39, 0)
s = 95: (0, 16, 7, 19, 8, 8, 16, 18, 7, 8, 24, 0)
s = 96: (0, 16, 7, 15, 10, 6, 28, 31, 10, 19, 18, 0)
s = 97: (0, 8, 7, 17, 6, 6, 38, 32, 8, 8, 33, 0)
s = 98: (0, 11, 5, 21, 6, 4, 19, 46, 12, 12, 15, 0)
s = 99: (0, 13, 6, 25, 7, 3, 30, 26, 6, 11, 34, 0)
s = 100: (0, 10, 5, 19, 11, 7, 36, 29, 6, 10, 33, 0)
s = 101: (0, 11, 8, 33, 6, 4, 18, 20, 4, 9, 19, 0)
s = 102: (0, 17, 5, 13, 9, 4, 43, 26, 8, 10, 37, 0)
s = 103: (0, 15, 6, 15, 5, 4, 22, 24, 7, 9, 20, 0)
s = 104: (0, 15, 5, 15, 5, 3, 26, 19, 10, 15, 25, 0)
s = 105: (0, 13, 6, 21, 4, 4, 27, 36, 6, 9, 20, 0)
s = 106: (0, 10, 8, 21, 5, 4, 30, 29, 10, 10, 44, 0)
s = 107: (0, 15, 9, 15, 7, 4, 21, 20, 8, 21, 28, 0)
s = 108: (0, 8, 6, 10, 6, 5, 38, 24, 6, 11, 33, 0)
s = 109: (0, 19, 10, 15, 4, 4, 47, 23, 12, 9, 26, 0)
s = 110: (0, 20, 9, 19, 5, 3, 19, 24, 10, 16, 19, 0)
s = 111: (0, 10, 9, 16, 6, 4, 24, 37, 10, 10, 26, 0)
s = 112: (0, 9, 6, 22, 7, 6, 26, 20, 6, 14, 28, 0)
s = 113: (0, 9, 7, 16, 6, 7, 33, 17, 9, 19, 18, 0)
s = 114: (0, 9, 5, 20, 5, 4, 24, 18, 11, 8, 26, 0)
s = 115: (0, 9, 9, 19, 4, 3, 26, 16, 9, 8, 35, 0)
s = 116: (0, 12, 4, 14, 5, 5, 36, 30, 10, 10, 35, 0)
s = 117: (0, 13, 4, 13, 5, 5, 28, 22, 6, 11, 28, 0)
s = 118: (0, 11, 8, 16, 5, 4, 24, 36, 7, 10, 22, 0)
s = 119: (0, 8, 5, 33, 7, 5, 22, 31, 7, 10, 17, 0)
s = 120: (0, 14, 8, 13, 9, 4, 21, 39, 6, 17, 44, 0)
s = 121: (0, 13, 6, 13, 7, 5, 33, 27, 9, 8, 40, 0)
s = 122: (0, 16, 7, 20, 9, 5, 23, 18, 6, 9, 28, 0)
s = 123: (0, 16, 8, 20, 9, 6, 37, 35, 9, 13, 17, 0)
s = 124: (0, 13, 5, 24, 6, 3, 22, 28, 5, 14, 22, 0)
s = 125: (0, 7, 6, 12, 7, 3, 17, 24, 10, 15, 20, 0)
s = 126: (0, 14, 6, 23, 4, 3, 26, 30, 5, 10, 18, 0)
s = 127: (0, 16, 9, 13, 9, 5, 26, 18, 9, 16, 30, 0)
s = 128: (0, 9, 5, 25, 8, 6, 26, 17, 7, 15, 29, 0)
s = 129: (0, 16, 7, 17, 8, 4, 46, 17, 6, 9, 20, 0)
s = 130: (0, 15, 4, 17, 7, 4, 35, 21, 8, 7, 22, 0)
s = 131: (0, 8, 11, 24, 5, 5, 21, 22, 5, 10, 30, 0)
s = 132: (0, 10, 7, 26, 6, 3, 41, 45, 8, 10, 29, 0)
s = 133: (0, 10, 6, 20, 9, 6, 32, 29, 5, 8, 26, 0)
s = 134: (0, 14, 9, 16, 5, 5, 28, 41, 5, 9, 17, 0)
s = 135: (0, 15, 6, 11, 4, 4, 17, 31, 7, 12, 35, 0)
s = 136: (0, 9, 6, 24, 6, 4, 22, 21, 10, 9, 24, 0)
s = 137: (0, 10, 8, 12, 5, 5, 23, 22, 12, 8, 17, 0)
s = 138: (0, 15, 9, 22, 5, 5, 25, 30, 12, 12, 18, 0)
s = 139: (0, 10, 7, 26, 7, 5, 19, 21, 9, 22, 18, 0)
s = 140: (0, 10, 5, 24, 9, 7, 20, 28, 9, 8, 26, 0)
s = 141: (0, 16, 9, 18, 5, 4, 24, 26, 8, 11, 27, 0)
s = 142: (0, 16, 7, 17, 5, 3, 31, 28, 11, 9, 24, 0)
s = 143: (0, 18, 9, 21, 6, 3, 26, 20, 9, 9, 21, 0)
s = 144: (0, 12, 8, 17, 10, 5, 36, 25, 6, 11, 18, 0)
s = 145: (0, 10, 7, 17, 6, 3, 23, 35, 7, 9, 38, 0)
s = 146: (0, 14, 4, 25, 8, 4, 29, 44, 4, 13, 29, 0)
s = 147: (0, 11, 5, 23, 9, 3, 32, 31, 7, 14, 32, 0)
s = 148: (0, 9, 5, 19, 8, 4, 34, 34, 6, 8, 22, 0)
s = 149: (0, 12, 8, 16, 8, 6, 24, 29, 13, 12, 20, 0)
s = 150: (0, 11, 9, 15, 6, 4, 38, 25, 5, 8, 21, 0)
s = 151: (0, 12, 7, 30, 7, 6, 47, 34, 8, 16, 22, 0)
s = 152: (0, 14, 5, 25, 7, 7, 40, 28, 9, 9, 24, 0)
s = 153: (0, 7, 4, 12, 8, 3, 28, 31, 10, 10, 24, 0)
s = 154: (0, 12, 6, 29, 10, 6, 30, 32, 7, 20, 31, 0)
s = 155: (0, 7, 5, 14, 6, 7, 25, 26, 7, 15, 22, 0)
s = 156: (0, 15, 11, 18, 5, 5, 19, 32, 9, 10, 28, 0)
s = 157: (0, 14, 8, 16, 5, 4, 25, 27, 9, 14, 26, 0)
s = 158: (0, 16, 7, 13, 4, 7, 22, 25, 7, 14, 24, 0)
s = 159: (0, 10, 7, 18, 7, 4, 21, 38, 10, 11, 29, 0)
s = 160: (0, 13, 7, 19, 4, 3, 20, 18, 11, 13, 27, 0)
s = 161: (0, 9, 6, 17, 4, 3, 36, 22, 7, 9, 17, 0)
s = 162: (0, 9, 6, 14, 6, 3, 36, 19, 8, 14, 21, 0)
s = 163: (0, 9, 12, 17, 7, 3, 19, 38, 9, 8, 34, 0)
s = 164: (0, 17, 6, 21, 6, 4, 22, 31, 8, 18, 21, 0)
s = 165: (0, 11, 6, 18, 7, 6, 27, 25, 6, 16, 20, 0)
s = 166: (0, 14, 7, 12, 7, 3, 35, 30, 8, 10, 22, 0)
s = 167: (0, 13, 5, 23, 7, 7, 29, 20, 10, 15, 22, 0)
s = 168: (0, 13, 4, 15, 7, 5, 29, 32, 7, 8, 30, 0)
s = 169: (0, 13, 6, 17, 6, 3, 22, 21, 7, 17, 21, 0)
s = 170: (0, 15, 7, 14, 5, 5, 18, 25, 7, 20, 24, 0)
s = 171: (0, 9, 10, 24, 6, 5, 46, 22, 7, 9, 41, 0)
s = 172: (0, 15, 4, 23, 6, 3, 30, 34, 12, 17, 33, 0)
s = 173: (0, 18, 7, 10, 5, 3, 36, 28, 11, 15, 14, 0)
s = 174: (0, 16, 7, 17, 8, 3, 35, 28, 11, 14, 30, 0)
s = 175: (0, 7, 7, 18, 4, 5, 20, 33, 6, 16, 15, 0)
s = 176: (0, 8, 4, 19, 8, 3, 45, 23, 9, 9, 20, 0)
s = 177: (0, 11, 10, 20, 7, 4, 40, 24, 8, 14, 24, 0)
s = 178: (0, 15, 7, 12, 5, 5, 36, 23, 9, 16, 40, 0)
s = 179: (0, 14, 9, 30, 6, 4, 19, 25, 6, 11, 19, 0)
s = 180: (0, 14, 6, 28, 7, 7, 24, 40, 10, 17, 31, 0)
s = 181: (0, 10, 8, 18, 6, 4, 24, 25, 7, 11, 31, 0)
s = 182: (0, 11, 11, 16, 8, 5, 24, 22, 6, 14, 22, 0)
s = 183: (0, 10, 5, 14, 8, 4, 31, 25, 8, 7, 37, 0)
s = 184: (0, 9, 6, 12, 7, 3, 34, 22, 6, 14, 36, 0)
s = 185: (0, 9, 5, 29, 6, 4, 24, 22, 10, 13, 23, 0)
s = 186: (0, 10, 7, 13, 6, 4, 26, 20, 7, 11, 20, 0)
s = 187: (0, 15, 7, 22, 4, 5, 38, 19, 6, 10, 19, 0)
s = 188: (0, 13, 4, 20, 7, 3, 17, 26, 7, 9, 20, 0)
s = 189: (0, 13, 8, 22, 6, 5, 25, 34, 5, 10, 39, 0)
s = 190: (0, 16, 10, 15, 5, 3, 23, 24, 6, 14, 33, 0)
s = 191: (0, 9, 4, 28, 4, 3, 30, 19, 11, 13, 17, 0)
s = 192: (0, 12, 5, 21, 10, 8, 37, 36, 7, 7, 39, 0)
s = 193: (0, 9, 9, 14, 6, 5, 41, 28, 5, 14, 15, 0)
s = 194: (0, 8, 7, 22, 5, 4, 34, 34, 8, 8, 20, 0)
s = 195: (0, 9, 7, 16, 8, 3, 18, 16, 5, 12, 34, 0)
s = 196: (0, 8, 7, 12, 6, 5, 23, 30, 8, 24, 25, 0)
s = 197: (0, 12, 8, 16, 10, 5, 24, 25, 7, 12, 25, 0)
s = 198: (0, 8, 7, 16, 8, 3, 33, 28, 6, 15, 24, 0)
s = 199: (0, 17, 5, 18, 4, 4, 27, 41, 5, 14, 21, 0)
s = 200: (0, 10, 7, 20, 9, 3, 15, 42, 7, 9, 22, 0)
------------------------------------------------------------------------
RESOURCE k = 2
s = 1: (0, 24, 22, 17, 8, 3, 15, 16, 13, 13, 47, 0)
s = 2: (0, 13, 19, 19, 10, 6, 25, 24, 8, 11, 31, 0)
s = 3: (0, 19, 24, 12, 8, 4, 18, 24, 10, 10, 48, 0)
s = 4: (0, 15, 42, 24, 14, 4, 11, 24, 12, 12, 43, 0)
s = 5: (0, 23, 35, 15, 6, 4, 13, 18, 19, 14, 54, 0)
s = 6: (0, 21, 13, 27, 9, 7, 12, 14, 10, 14, 34, 0)
s = 7: (0, 16, 19, 10, 7, 5, 16, 27, 15, 10, 31, 0)
s = 8: (0, 15, 17, 19, 8, 5, 10, 19, 12, 16, 44, 0)
s = 9: (0, 13, 32, 30, 6, 5, 24, 23, 7, 24, 54, 0)
s = 10: (0, 19, 27, 21, 9, 5, 23, 33, 11, 9, 48, 0)
s = 11: (0, 14, 21, 11, 7, 4, 11, 17, 16, 11, 39, 0)
s = 12: (0, 12, 17, 16, 5, 6, 15, 18, 6, 17, 44, 0)
s = 13: (0, 18, 20, 11, 9, 4, 18, 15, 9, 17, 33, 0)
s = 14: (0, 14, 26, 16, 11, 6, 10, 30, 10, 16, 36, 0)
s = 15: (0, 13, 21, 17, 8, 4, 10, 34, 8, 11, 87, 0)
s = 16: (0, 20, 24, 22, 7, 3, 11, 24, 9, 11, 32, 0)
s = 17: (0, 20, 41, 12, 11, 3, 11, 19, 12, 15, 49, 0)
s = 18: (0, 22, 26, 16, 9, 4, 24, 24, 11, 15, 45, 0)
s = 19: (0, 15, 30, 13, 10, 3, 9, 21, 9, 14, 31, 0)
s = 20: (0, 17, 13, 12, 6, 4, 8, 21, 17, 12, 34, 0)
s = 21: (0, 14, 14, 16, 11, 5, 13, 22, 11, 17, 60, 0)
s = 22: (0, 18, 28, 17, 12, 3, 20, 28, 7, 20, 36, 0)
s = 23: (0, 20, 27, 16, 6, 4, 11, 25, 6, 14, 47, 0)
s = 24: (0, 19, 21, 20, 8, 3, 11, 32, 17, 10, 46, 0)
s = 25: (0, 14, 24, 16, 8, 5, 19, 25, 7, 17, 50, 0)
s = 26: (0, 14, 24, 15, 6, 3, 23, 18, 7, 18, 36, 0)
s = 27: (0, 18, 19, 15, 6, 4, 9, 19, 10, 18, 74, 0)
s = 28: (0, 14, 27, 14, 10, 5, 17, 17, 11, 13, 49, 0)
s = 29: (0, 16, 19, 16, 9, 5, 12, 24, 14, 16, 42, 0)
s = 30: (0, 25, 20, 19, 9, 4, 20, 22, 7, 11, 45, 0)
s = 31: (0, 27, 36, 19, 7, 3, 19, 20, 15, 14, 57, 0)
s = 32: (0, 15, 26, 13, 7, 4, 10, 18, 14, 13, 58, 0)
s = 33: (0, 21, 20, 15, 6, 5, 14, 22, 13, 16, 34, 0)
s = 34: (0, 17, 32, 15, 10, 4, 11, 19, 8, 17, 42, 0)
s = 35: (0, 15, 23, 18, 8, 4, 14, 22, 10, 11, 42, 0)
s = 36: (0, 19, 16, 17, 8, 4, 11, 26, 11, 10, 31, 0)
s = 37: (0, 19, 30, 12, 8, 3, 17, 14, 16, 11, 71, 0)
s = 38: (0, 21, 19, 23, 9, 3, 11, 15, 8, 20, 57, 0)
s = 39: (0, 14, 20, 23, 9, 4, 13, 20, 10, 20, 64, 0)
s = 40: (0, 16, 30, 13, 6, 4, 10, 19, 11, 13, 64, 0)
s = 41: (0, 25, 14, 13, 8, 3, 17, 37, 13, 10, 49, 0)
s = 42: (0, 26, 33, 11, 9, 5, 9, 26, 11, 10, 53, 0)
s = 43: (0, 20, 20, 17, 13, 4, 22, 31, 15, 11, 29, 0)
s = 44: (0, 12, 18, 16, 5, 4, 11, 16, 10, 11, 40, 0)
s = 45: (0, 18, 24, 22, 7, 6, 11, 27, 10, 11, 50, 0)
s = 46: (0, 19, 25, 12, 8, 5, 21, 17, 11, 16, 61, 0)
s = 47: (0, 15, 43, 16, 9, 4, 11, 25, 9, 12, 59, 0)
s = 48: (0, 16, 20, 15, 6, 4, 16, 16, 9, 18, 30, 0)
s = 49: (0, 10, 39, 14, 9, 4, 10, 17, 6, 22, 54, 0)
s = 50: (0, 24, 14, 26, 12, 4, 20, 13, 7, 12, 60, 0)
s = 51: (0, 17, 32, 11, 9, 4, 13, 25, 11, 17, 45, 0)
s = 52: (0, 17, 16, 13, 15, 5, 11, 23, 7, 17, 59, 0)
s = 53: (0, 16, 30, 10, 10, 5, 19, 21, 12, 19, 58, 0)
s = 54: (0, 11, 20, 12, 10, 5, 23, 29, 10, 15, 42, 0)
s = 55: (0, 13, 36, 16, 8, 5, 15, 19, 18, 10, 40, 0)
s = 56: (0, 22, 29, 10, 6, 3, 13, 19, 8, 18, 41, 0)
s = 57: (0, 24, 42, 12, 12, 4, 11, 35, 16, 9, 64, 0)
s = 58: (0, 17, 32, 23, 13, 3, 16, 18, 10, 18, 61, 0)
s = 59: (0, 18, 16, 16, 8, 3, 12, 35, 10, 15, 55, 0)
s = 60: (0, 16, 15, 11, 7, 5, 13, 26, 8, 16, 42, 0)
s = 61: (0, 20, 20, 11, 6, 4, 13, 24, 9, 18, 42, 0)
s = 62: (0, 24, 33, 12, 9, 3, 13, 35, 13, 23, 42, 0)
s = 63: (0, 17, 39, 17, 7, 4, 19, 21, 6, 22, 43, 0)
s = 64: (0, 25, 20, 16, 11, 6, 12, 29, 9, 9, 61, 0)
s = 65: (0, 16, 30, 13, 11, 4, 16, 21, 12, 17, 38, 0)
s = 66: (0, 17, 18, 13, 7, 4, 10, 21, 10, 15, 46, 0)
s = 67: (0, 29, 33, 10, 7, 5, 24, 23, 9, 12, 76, 0)
s = 68: (0, 16, 20, 20, 7, 5, 17, 25, 8, 22, 56, 0)
s = 69: (0, 16, 19, 18, 8, 6, 16, 24, 8, 17, 53, 0)
s = 70: (0, 27, 44, 12, 12, 4, 14, 45, 10, 18, 30, 0)
s = 71: (0, 22, 27, 16, 10, 5, 17, 20, 7, 16, 62, 0)
s = 72: (0, 14, 23, 26, 8, 4, 19, 18, 13, 12, 40, 0)
s = 73: (0, 24, 33, 24, 7, 4, 14, 23, 10, 14, 48, 0)
s = 74: (0, 11, 29, 26, 8, 4, 18, 14, 10, 16, 73, 0)
s = 75: (0, 25, 27, 15, 7, 5, 15, 22, 9, 19, 51, 0)
s = 76: (0, 23, 22, 15, 8, 7, 19, 16, 10, 13, 36, 0)
s = 77: (0, 14, 17, 11, 7, 5, 16, 20, 7, 11, 67, 0)
s = 78: (0, 18, 22, 23, 11, 4, 26, 15, 10, 22, 45, 0)
s = 79: (0, 17, 33, 20, 8, 3, 13, 14, 13, 19, 70, 0)
s = 80: (0, 11, 26, 10, 6, 4, 15, 24, 9, 9, 55, 0)
s = 81: (0, 12, 30, 13, 11, 4, 13, 24, 12, 9, 64, 0)
s = 82: (0, 21, 32, 17, 11, 4, 16, 28, 13, 11, 45, 0)
s = 83: (0, 21, 25, 13, 9, 6, 11, 17, 10, 13, 36, 0)
s = 84: (0, 20, 36, 11, 8, 5, 17, 16, 9, 18, 49, 0)
s = 85: (0, 23, 26, 25, 8, 5, 13, 36, 9, 19, 35, 0)
s = 86: (0, 24, 43, 16, 7, 5, 11, 16, 8, 11, 34, 0)
s = 87: (0, 13, 25, 17, 13, 4, 23, 22, 10, 8, 51, 0)
s = 88: (0, 13, 31, 18, 7, 4, 10, 17, 9, 17, 69, 0)
s = 89: (0, 17, 15, 15, 6, 5, 18, 21, 10, 12, 42, 0)
s = 90: (0, 19, 32, 15, 8, 4, 14, 18, 10, 11, 46, 0)
s = 91: (0, 24, 16, 17, 9, 4, 18, 28, 9, 15, 44, 0)
s = 92: (0, 17, 33, 15, 10, 4, 16, 22, 12, 10, 50, 0)
s = 93: (0, 17, 27, 18, 14, 6, 12, 30, 10, 10, 28, 0)
s = 94: (0, 27, 18, 20, 9, 3, 16, 28, 9, 16, 77, 0)
s = 95: (0, 24, 28, 17, 10, 8, 9, 16, 9, 9, 48, 0)
s = 96: (0, 24, 28, 13, 13, 6, 16, 27, 14, 22, 36, 0)
s = 97: (0, 12, 28, 16, 8, 6, 21, 28, 12, 10, 66, 0)
s = 98: (0, 16, 20, 19, 8, 4, 11, 41, 17, 14, 30, 0)
s = 99: (0, 19, 23, 22, 10, 3, 17, 23, 9, 13, 67, 0)
s = 100: (0, 14, 20, 17, 15, 7, 20, 25, 8, 12, 65, 0)
s = 101: (0, 16, 29, 29, 8, 4, 10, 18, 6, 11, 38, 0)
s = 102: (0, 26, 18, 12, 12, 4, 24, 23, 11, 12, 74, 0)
s = 103: (0, 23, 24, 13, 6, 4, 13, 21, 9, 11, 40, 0)
s = 104: (0, 23, 20, 13, 6, 3, 15, 17, 14, 18, 50, 0)
s = 105: (0, 19, 24, 19, 6, 4, 15, 32, 8, 10, 39, 0)
s = 106: (0, 14, 29, 18, 6, 4, 17, 26, 14, 12, 87, 0)
s = 107: (0, 22, 34, 13, 9, 4, 12, 18, 11, 24, 55, 0)
s = 108: (0, 12, 21, 9, 7, 5, 22, 21, 8, 12, 65, 0)
s = 109: (0, 28, 38, 13, 6, 4, 26, 21, 16, 10, 52, 0)
s = 110: (0, 30, 33, 17, 6, 3, 11, 21, 13, 19, 37, 0)
s = 111: (0, 15, 34, 15, 8, 4, 13, 33, 15, 12, 52, 0)
s = 112: (0, 14, 24, 19, 9, 6, 15, 17, 8, 16, 56, 0)
s = 113: (0, 14, 26, 14, 8, 7, 19, 15, 13, 22, 35, 0)
s = 114: (0, 14, 20, 18, 7, 4, 13, 16, 15, 10, 52, 0)
s = 115: (0, 13, 35, 17, 5, 3, 15, 15, 13, 9, 70, 0)
s = 116: (0, 18, 15, 13, 6, 5, 20, 27, 14, 12, 70, 0)
s = 117: (0, 19, 16, 12, 7, 5, 16, 20, 8, 13, 56, 0)
s = 118: (0, 16, 31, 14, 6, 4, 13, 32, 9, 12, 43, 0)
s = 119: (0, 12, 17, 30, 9, 5, 12, 28, 9, 12, 33, 0)
s = 120: (0, 21, 30, 12, 12, 4, 12, 35, 9, 19, 87, 0)
s = 121: (0, 19, 21, 12, 9, 5, 19, 24, 13, 9, 80, 0)
s = 122: (0, 24, 26, 18, 12, 5, 13, 16, 9, 11, 56, 0)
s = 123: (0, 23, 32, 18, 12, 6, 21, 31, 12, 16, 34, 0)
s = 124: (0, 20, 18, 21, 8, 3, 12, 25, 8, 16, 43, 0)
s = 125: (0, 11, 23, 10, 9, 3, 10, 21, 13, 17, 39, 0)
s = 126: (0, 21, 22, 20, 5, 3, 15, 27, 6, 12, 35, 0)
s = 127: (0, 24, 35, 11, 12, 5, 15, 16, 13, 18, 60, 0)
s = 128: (0, 13, 20, 22, 10, 6, 15, 15, 10, 18, 57, 0)
s = 129: (0, 23, 25, 15, 10, 4, 26, 15, 9, 11, 40, 0)
s = 130: (0, 22, 16, 15, 9, 4, 20, 18, 11, 8, 44, 0)
s = 131: (0, 12, 43, 22, 6, 5, 12, 20, 7, 11, 60, 0)
s = 132: (0, 15, 27, 23, 8, 3, 23, 40, 11, 12, 57, 0)
s = 133: (0, 14, 23, 18, 11, 6, 18, 26, 7, 9, 51, 0)
s = 134: (0, 21, 34, 14, 6, 5, 16, 37, 7, 10, 34, 0)
s = 135: (0, 22, 24, 10, 5, 4, 9, 27, 10, 14, 70, 0)
s = 136: (0, 13, 23, 21, 7, 4, 12, 19, 14, 10, 47, 0)
s = 137: (0, 14, 32, 10, 7, 5, 13, 19, 18, 10, 34, 0)
s = 138: (0, 22, 35, 19, 7, 5, 14, 27, 16, 14, 35, 0)
s = 139: (0, 15, 27, 24, 9, 5, 11, 19, 13, 26, 35, 0)
s = 140: (0, 15, 19, 22, 11, 7, 11, 25, 12, 10, 52, 0)
s = 141: (0, 24, 34, 16, 7, 4, 14, 23, 11, 13, 54, 0)
s = 142: (0, 23, 27, 15, 6, 3, 18, 25, 15, 11, 47, 0)
s = 143: (0, 27, 33, 19, 7, 3, 15, 18, 13, 11, 41, 0)
s = 144: (0, 18, 29, 15, 13, 5, 20, 22, 9, 13, 35, 0)
s = 145: (0, 15, 25, 15, 8, 3, 13, 32, 10, 11, 75, 0)
s = 146: (0, 21, 16, 22, 11, 4, 16, 39, 6, 15, 57, 0)
s = 147: (0, 16, 18, 20, 12, 3, 18, 28, 10, 16, 64, 0)
s = 148: (0, 14, 20, 17, 11, 4, 19, 30, 9, 10, 44, 0)
s = 149: (0, 18, 31, 14, 10, 6, 13, 26, 19, 14, 40, 0)
s = 150: (0, 17, 35, 13, 8, 4, 21, 22, 7, 10, 42, 0)
s = 151: (0, 18, 26, 27, 9, 6, 26, 30, 11, 18, 44, 0)
s = 152: (0, 21, 20, 23, 9, 7, 22, 25, 13, 10, 47, 0)
s = 153: (0, 11, 16, 11, 11, 3, 16, 27, 14, 11, 47, 0)
s = 154: (0, 18, 22, 26, 13, 6, 17, 29, 10, 23, 62, 0)
s = 155: (0, 10, 18, 12, 8, 7, 14, 23, 10, 17, 43, 0)
s = 156: (0, 22, 43, 16, 6, 5, 11, 28, 12, 12, 56, 0)
s = 157: (0, 20, 31, 15, 6, 4, 14, 24, 12, 16, 52, 0)
s = 158: (0, 23, 28, 12, 5, 7, 12, 23, 10, 16, 47, 0)
s = 159: (0, 15, 28, 16, 9, 4, 12, 33, 14, 13, 57, 0)
s = 160: (0, 20, 27, 17, 6, 3, 12, 16, 15, 15, 53, 0)
s = 161: (0, 14, 23, 15, 5, 3, 20, 20, 9, 11, 34, 0)
s = 162: (0, 14, 21, 13, 7, 3, 20, 17, 12, 16, 41, 0)
s = 163: (0, 13, 46, 16, 10, 3, 11, 34, 13, 9, 67, 0)
s = 164: (0, 26, 21, 19, 7, 4, 12, 27, 12, 21, 42, 0)
s = 165: (0, 17, 24, 16, 9, 6, 15, 23, 8, 19, 39, 0)
s = 166: (0, 20, 26, 11, 10, 3, 20, 27, 12, 11, 44, 0)
s = 167: (0, 19, 17, 20, 9, 7, 16, 18, 14, 17, 43, 0)
s = 168: (0, 19, 14, 14, 9, 5, 16, 28, 10, 9, 60, 0)
s = 169: (0, 20, 21, 15, 8, 3, 12, 19, 10, 20, 42, 0)
s = 170: (0, 23, 27, 12, 6, 5, 10, 22, 10, 24, 48, 0)
s = 171: (0, 13, 37, 21, 7, 5, 26, 20, 10, 11, 82, 0)
s = 172: (0, 22, 15, 21, 7, 3, 17, 30, 17, 20, 66, 0)
s = 173: (0, 27, 27, 9, 6, 3, 20, 25, 15, 18, 28, 0)
s = 174: (0, 23, 25, 15, 10, 3, 20, 25, 15, 17, 59, 0)
s = 175: (0, 11, 26, 16, 6, 5, 11, 30, 8, 19, 29, 0)
s = 176: (0, 11, 15, 17, 11, 3, 25, 20, 12, 10, 40, 0)
s = 177: (0, 16, 37, 17, 9, 4, 23, 22, 12, 16, 48, 0)
s = 178: (0, 22, 25, 11, 7, 5, 20, 21, 13, 19, 79, 0)
s = 179: (0, 21, 35, 27, 8, 4, 11, 23, 8, 12, 38, 0)
s = 180: (0, 21, 24, 25, 9, 7, 14, 36, 14, 20, 61, 0)
s = 181: (0, 15, 30, 16, 8, 4, 13, 22, 10, 13, 61, 0)
s = 182: (0, 16, 44, 14, 10, 5, 13, 20, 9, 16, 44, 0)
s = 183: (0, 15, 19, 12, 11, 4, 18, 23, 12, 9, 73, 0)
s = 184: (0, 13, 22, 11, 9, 3, 19, 19, 9, 16, 72, 0)
s = 185: (0, 13, 19, 26, 8, 4, 13, 19, 14, 15, 46, 0)
s = 186: (0, 14, 25, 11, 8, 4, 15, 18, 10, 13, 40, 0)
s = 187: (0, 23, 27, 19, 5, 5, 22, 17, 8, 12, 37, 0)
s = 188: (0, 19, 15, 18, 9, 3, 9, 23, 10, 11, 40, 0)
s = 189: (0, 19, 29, 19, 8, 5, 14, 31, 6, 11, 77, 0)
s = 190: (0, 24, 37, 13, 7, 3, 13, 22, 8, 16, 66, 0)
s = 191: (0, 13, 15, 25, 5, 3, 17, 17, 16, 16, 33, 0)
s = 192: (0, 18, 20, 18, 13, 8, 21, 32, 9, 8, 78, 0)
s = 193: (0, 13, 36, 12, 7, 5, 23, 25, 7, 16, 29, 0)
s = 194: (0, 12, 28, 19, 7, 4, 19, 30, 11, 10, 39, 0)
s = 195: (0, 13, 26, 14, 11, 3, 10, 14, 7, 13, 68, 0)
s = 196: (0, 12, 26, 10, 8, 5, 13, 27, 11, 28, 50, 0)
s = 197: (0, 17, 32, 14, 13, 5, 14, 22, 10, 13, 50, 0)
s = 198: (0, 12, 27, 14, 10, 3, 19, 25, 8, 17, 47, 0)
s = 199: (0, 25, 17, 16, 5, 4, 15, 36, 7, 17, 41, 0)
s = 200: (0, 14, 28, 18, 12, 3, 9, 37, 10, 10, 44, 0)
************************************************************************
ES/LS-VALUES:
jobnr.   ES(i)    LS(i)
------------------------------------------------------------------------
  0        0        0
  1        0       54
  2        0       54
  3        0       54
  4        3       58
  5        3       69
  6        4       65
  7        4       65
  8        3       73
  9        9       71
 10        6       60
 11       20       75
************************************************************************
BIG-M-VALUES:
M1 = 51, M2 = 131
************************************************************************
